10
2147483647 46 16 66 36 77 16 36 84 60 
46 2147483647 84 28 95 60 52 69 7 22 
16 84 2147483647 61 66 63 74 8 56 54 
66 28 61 2147483647 17 57 1 45 62 65 
36 95 66 17 2147483647 91 52 90 9 52 
77 60 63 57 91 2147483647 51 90 77 42 
16 52 74 1 52 51 2147483647 35 78 73 
36 69 8 45 90 90 35 2147483647 39 85 
84 7 56 62 9 77 78 39 2147483647 71 
60 22 54 65 52 42 73 85 71 2147483647 
